cases/pglib-opf/pglib_opf_case57_ieee.m
ipopt
ACT
[info | PowerModels]: removing 3 cost terms from generator 4: Float64[]
[info | PowerModels]: removing 1 cost terms from generator 1: [1696.0624, 0.0]
[info | PowerModels]: removing 1 cost terms from generator 5: [3044.1037, 0.0]
[info | PowerModels]: removing 3 cost terms from generator 2: Float64[]
[info | PowerModels]: removing 3 cost terms from generator 6: Float64[]
[info | PowerModels]: removing 1 cost terms from generator 7: [3718.8979000000004, 0.0]
[info | PowerModels]: removing 1 cost terms from generator 3: [3407.5557000000003, 0.0]

******************************************************************************
This program contains Ipopt, a library for large-scale nonlinear optimization.
 Ipopt is released as open source code under the Eclipse Public License (EPL).
         For more information visit http://projects.coin-or.org/Ipopt
******************************************************************************

This is Ipopt version 3.13.2, running with linear solver mumps.
NOTE: Other linear solvers might be more efficient (see Ipopt documentation).

Number of nonzeros in equality constraint Jacobian...:     2131
Number of nonzeros in inequality constraint Jacobian.:      632
Number of nonzeros in Lagrangian Hessian.............:     1022

Total number of variables............................:      601
                     variables with only lower bounds:        0
                variables with lower and upper bounds:      544
                     variables with only upper bounds:        0
Total number of equality constraints.................:      591
Total number of inequality constraints...............:      316
        inequality constraints with only lower bounds:       78
   inequality constraints with lower and upper bounds:        0
        inequality constraints with only upper bounds:      238

iter    objective    inf_pr   inf_du lg(mu)  ||d||  lg(rg) alpha_du alpha_pr  ls
   0  1.0503586e+02 3.76e+00 1.00e+02  -1.0 0.00e+00    -  0.00e+00 0.00e+00   0
   1  1.0550284e+04 2.66e+00 4.11e+02  -1.0 3.74e+00    -  2.71e-03 2.94e-01h  1
   2  1.2036872e+04 2.31e+00 3.57e+02  -1.0 1.01e+01    -  5.02e-02 1.32e-01h  1
   3  1.2822995e+04 2.23e+00 3.46e+02  -1.0 5.27e+00    -  2.53e-01 3.22e-02h  1
   4  3.7759164e+04 2.39e-03 5.19e+01  -1.0 5.42e+00    -  6.13e-01 1.00e+00H  1
   5  3.7603022e+04 1.76e-03 5.44e+00  -1.0 4.50e+00    -  8.38e-01 1.00e+00f  1
   6  3.7612733e+04 3.29e-04 1.07e+00  -1.0 2.27e+00    -  9.99e-01 1.00e+00h  1
   7  3.7620444e+04 1.35e-05 2.28e-02  -1.0 4.26e-01    -  1.00e+00 1.00e+00h  1
   8  3.7596705e+04 9.76e-05 3.37e+00  -2.5 1.39e+00    -  7.13e-01 8.28e-01f  1
   9  3.7592036e+04 4.34e-05 1.90e+00  -2.5 2.71e-01    -  7.90e-01 5.79e-01h  1
iter    objective    inf_pr   inf_du lg(mu)  ||d||  lg(rg) alpha_du alpha_pr  ls
  10  3.7590294e+04 5.36e-06 3.51e+00  -2.5 1.27e-01    -  7.48e-01 1.00e+00h  1
  11  3.7590167e+04 6.46e-08 2.53e-03  -2.5 5.45e-03    -  1.00e+00 1.00e+00h  1
  12  3.7589384e+04 1.70e-07 1.20e-02  -3.8 4.03e-02    -  9.91e-01 9.96e-01f  1
  13  3.7589383e+04 4.09e-10 1.45e-05  -3.8 8.27e-04    -  1.00e+00 1.00e+00f  1
  14  3.7589339e+04 6.20e-10 3.75e-05  -5.7 2.26e-03    -  1.00e+00 1.00e+00h  1
  15  3.7589339e+04 1.09e-14 2.31e-10  -5.7 2.34e-06    -  1.00e+00 1.00e+00h  1
  16  3.7589338e+04 9.39e-14 5.63e-09  -8.6 2.82e-05    -  1.00e+00 1.00e+00f  1

Number of Iterations....: 16

                                   (scaled)                 (unscaled)
Objective...............:   1.0107655341659784e+03    3.7589338224022358e+04
Dual infeasibility......:   5.6256232872860099e-09    2.0921118629279040e-07
Constraint violation....:   9.3924867883288243e-14    9.3924867883288243e-14
Complementarity.........:   2.5944592883397382e-09    9.6485291990421481e-08
Overall NLP error.......:   5.6256232872860099e-09    2.0921118629279040e-07


Number of objective function evaluations             = 18
Number of objective gradient evaluations             = 17
Number of equality constraint evaluations            = 18
Number of inequality constraint evaluations          = 18
Number of equality constraint Jacobian evaluations   = 17
Number of inequality constraint Jacobian evaluations = 17
Number of Lagrangian Hessian evaluations             = 16
Total CPU secs in IPOPT (w/o function evaluations)   =      1.327
Total CPU secs in NLP function evaluations           =      2.287

EXIT: Optimal Solution Found.
Time to Solution........:4.389096021652222
